c read Graph
c width = 430
c time = 5 ms
c width = 8
c time = 200 ms
c width = 4
c time = 250 ms
c width = 4
c time = 299899 ms
s td 368 5 434
b 1 212 284
b 2 198 284 285
b 3 197 285 286
b 4 48 286 287
b 5 133 269
b 6 37 269 270
b 7 130 270 271
b 8 38 224
b 9 19 216
b 10 6 218 219 226
b 11 6 219 226 227
b 12 10 222 223 230
b 13 10 223 230 231
b 14 56 68 223 231
b 15 80 221 222 229
b 16 80 222 229 230
b 17 191 220 221 228
b 18 191 221 228 229
b 19 104 219 220 227
b 20 104 220 227 228
b 21 47 217 218 225
b 22 47 218 225 226
b 23 210 217 225
b 24 210 224 225
b 25 210 216 217
b 26 22 63 283
b 27 169 282 283
b 28 18 281 282
b 29 213 280 281
b 30 55 246
b 31 45 246 247
b 32 100 247 248
b 33 161 248 249
b 34 61 249 250
b 35 154 250 251
b 36 57 251 252
b 37 5 252 253
b 38 52 132 268
b 39 112 267 268
b 40 70 266 267
b 41 2 265 266
b 42 131 264 265
b 43 138 263 264
b 44 39 262 263
b 45 73 261 262
b 46 152 260 261
b 47 65 232
b 48 126 232 233
b 49 60 167 434
b 50 110 433 434
b 51 62 432 433
b 52 93 431 432
b 53 195 430 431
b 54 95 429 430
b 55 51 428 429
b 56 74 427 428
b 57 43 426 427
b 58 88 425 426
b 59 153 424 425
b 60 194 423 424
b 61 69 422 423
b 62 181 421 422
b 63 33 420 421
b 64 113 419 420
b 65 58 418 419
b 66 144 417 418
b 67 156 416 417
b 68 129 415 416
b 69 164 414 415
b 70 106 413 414
b 71 13 412 413
b 72 165 411 412
b 73 202 410 411
b 74 1 314 315
b 75 311 314 315
b 76 141 276 277 318
b 77 155 279 310 311
b 78 123 272 273 307
b 79 123 273 276 307
b 80 276 277 278 318
b 81 8 307 308 310
b 82 279 310 311 317
b 83 8 278 279 307 310
b 84 123 276 278 307 318
b 85 123 278 307 317 318
b 86 278 279 307 310 317
b 87 278 307 317 318
b 88 127 316 317
b 89 311 316 317
b 90 90 315 316
b 91 311 315 316
b 92 185 313 314
b 93 311 313 314
b 94 12 312 313
b 95 311 312 313
b 96 101 311 312
b 97 40 309 310
b 98 308 309 310
b 99 149 308 309
b 100 115 277 278
b 101 173 275 276
b 102 273 275 276
b 103 118 274 275
b 104 273 274 275
b 105 201 273 274
b 106 87 272 307
b 107 155 279 280
b 108 9 329 330
b 109 326 329 330
b 110 141 243 244 325
b 111 184 240 325 326
b 112 16 240 241 243
b 113 243 244 325 348
b 114 240 325 326 347
b 115 16 240 243 347 348
b 116 240 243 325 347 348
b 117 188 346 347
b 118 326 346 347
b 119 29 345 346
b 120 326 345 346
b 121 23 344 345
b 122 326 344 345
b 123 121 343 344
b 124 326 343 344
b 125 178 342 343
b 126 326 342 343
b 127 140 341 342
b 128 326 341 342
b 129 160 340 341
b 130 326 340 341
b 131 192 339 340
b 132 326 339 340
b 133 68 338 339
b 134 326 338 339
b 135 76 337 338
b 136 326 337 338
b 137 83 336 337
b 138 326 336 337
b 139 150 335 336
b 140 326 335 336
b 141 116 334 335
b 142 326 334 335
b 143 32 333 334
b 144 326 333 334
b 145 176 332 333
b 146 326 332 333
b 147 163 331 332
b 148 326 331 332
b 149 206 330 331
b 150 326 330 331
b 151 199 328 329
b 152 326 328 329
b 153 31 327 328
b 154 326 327 328
b 155 208 326 327
b 156 72 244 348
b 157 159 242 243
b 158 241 242 243
b 159 97 241 242
b 160 162 184 240
b 161 162 239 240
b 162 214 239 240
b 163 162 238 239
b 164 193 238 239
b 165 158 237 238
b 166 162 237 238
b 167 162 236 237
b 168 203 236 237
b 169 162 235 236
b 170 172 235 236
b 171 145 234 235
b 172 162 234 235
b 173 162 233 234
b 174 36 257 258
b 175 162 257 258
b 176 134 258 259
b 177 162 258 259
b 178 162 259 260
b 179 71 256 257
b 180 162 256 257
b 181 50 255 256
b 182 162 255 256
b 183 162 254 255
b 184 180 254 255
b 185 162 184 254
b 186 184 253 254
b 187 141 324 325
b 188 186 324 325
b 189 141 323 324
b 190 143 323 324
b 191 108 322 323
b 192 141 322 323
b 193 122 321 322
b 194 141 321 322
b 195 141 320 321
b 196 151 320 321
b 197 15 319 320
b 198 141 319 320
b 199 117 318 319
b 200 141 318 319
b 201 82 306 307
b 202 87 306 307
b 203 87 305 306
b 204 102 305 306
b 205 87 304 305
b 206 98 304 305
b 207 87 303 304
b 208 177 303 304
b 209 87 302 303
b 210 200 302 303
b 211 87 301 302
b 212 142 301 302
b 213 87 300 301
b 214 209 300 301
b 215 11 299 300
b 216 87 299 300
b 217 30 298 299
b 218 87 298 299
b 219 87 297 298
b 220 146 297 298
b 221 87 296 297
b 222 139 296 297
b 223 87 295 296
b 224 136 295 296
b 225 87 294 295
b 226 109 294 295
b 227 17 293 294
b 228 87 293 294
b 229 46 292 293
b 230 87 292 293
b 231 20 291 292
b 232 87 291 292
b 233 87 290 291
b 234 205 290 291
b 235 79 289 290
b 236 87 289 290
b 237 87 288 289
b 238 215 288 289
b 239 87 287 288
b 240 87 271 272
b 241 3 390 391
b 242 72 390 391
b 243 4 407 408
b 244 72 407 408
b 245 72 408 409
b 246 94 408 409
b 247 72 409 410
b 248 67 406 407
b 249 72 406 407
b 250 72 405 406
b 251 125 405 406
b 252 72 404 405
b 253 207 404 405
b 254 72 403 404
b 255 190 403 404
b 256 72 402 403
b 257 196 402 403
b 258 26 401 402
b 259 72 401 402
b 260 53 400 401
b 261 72 400 401
b 262 72 399 400
b 263 166 399 400
b 264 72 398 399
b 265 92 398 399
b 266 34 397 398
b 267 72 397 398
b 268 24 396 397
b 269 72 396 397
b 270 72 395 396
b 271 128 395 396
b 272 35 394 395
b 273 72 394 395
b 274 72 393 394
b 275 86 393 394
b 276 72 392 393
b 277 124 392 393
b 278 72 391 392
b 279 105 391 392
b 280 42 389 390
b 281 72 389 390
b 282 72 388 389
b 283 204 388 389
b 284 72 387 388
b 285 189 387 388
b 286 64 386 387
b 287 72 386 387
b 288 72 385 386
b 289 89 385 386
b 290 72 384 385
b 291 137 384 385
b 292 72 383 384
b 293 75 383 384
b 294 72 382 383
b 295 168 382 383
b 296 54 381 382
b 297 72 381 382
b 298 25 380 381
b 299 72 380 381
b 300 72 379 380
b 301 179 379 380
b 302 72 378 379
b 303 119 378 379
b 304 27 377 378
b 305 72 377 378
b 306 72 376 377
b 307 99 376 377
b 308 72 375 376
b 309 148 375 376
b 310 72 374 375
b 311 170 374 375
b 312 72 373 374
b 313 111 373 374
b 314 41 372 373
b 315 72 372 373
b 316 72 371 372
b 317 81 371 372
b 318 72 370 371
b 319 103 370 371
b 320 21 369 370
b 321 72 369 370
b 322 14 368 369
b 323 72 368 369
b 324 49 367 368
b 325 72 367 368
b 326 72 366 367
b 327 174 366 367
b 328 72 365 366
b 329 135 365 366
b 330 72 364 365
b 331 120 364 365
b 332 59 363 364
b 333 72 363 364
b 334 28 362 363
b 335 72 362 363
b 336 72 361 362
b 337 187 361 362
b 338 72 360 361
b 339 211 360 361
b 340 72 359 360
b 341 171 359 360
b 342 72 358 359
b 343 107 358 359
b 344 72 357 358
b 345 96 357 358
b 346 72 356 357
b 347 91 356 357
b 348 72 355 356
b 349 182 355 356
b 350 72 354 355
b 351 175 354 355
b 352 72 353 354
b 353 84 353 354
b 354 72 352 353
b 355 78 352 353
b 356 72 351 352
b 357 183 351 352
b 358 72 350 351
b 359 147 350 351
b 360 72 349 350
b 361 157 349 350
b 362 72 348 349
b 363 85 348 349
b 364 44 72 245
b 365 72 244 245
b 366 77 244 245
b 367 7
b 368 66 114
1 2
1 367
1 368
2 3
3 4
4 239
5 6
6 7
7 240
8 24
9 25
10 22
10 11
11 19
12 16
12 13
13 14
14 133
15 18
15 16
17 20
17 18
19 20
21 23
21 22
23 25
23 24
26 27
27 28
28 29
29 107
30 31
31 32
32 33
33 34
34 35
35 36
36 37
37 186
38 39
39 40
40 41
41 42
42 43
43 44
44 45
45 46
46 178
47 48
48 173
49 50
50 51
51 52
52 53
53 54
54 55
55 56
56 57
57 58
58 59
59 60
60 61
61 62
62 63
63 64
64 65
65 66
66 67
67 68
68 69
69 70
70 71
71 72
72 73
73 247
74 75
75 93
75 91
76 200
76 80
77 107
77 82
78 106
78 79
79 102
79 84
80 100
80 84
81 98
81 83
82 89
82 86
83 86
84 85
85 87
86 87
88 89
89 91
90 91
92 93
93 95
94 95
95 96
97 98
98 99
101 102
102 104
103 104
104 105
106 240
106 202
108 109
109 152
109 150
110 187
110 113
111 160
111 114
112 158
112 115
113 156
113 116
114 118
114 116
115 116
117 118
118 120
119 120
120 122
121 122
122 124
123 124
124 126
125 126
126 128
127 128
128 130
129 130
130 132
131 132
132 134
133 134
134 136
135 136
136 138
137 138
138 140
139 140
140 142
141 142
142 144
143 144
144 146
145 146
146 148
147 148
148 150
149 150
151 152
152 154
153 154
154 155
156 365
156 362
157 158
158 159
160 185
160 161
161 163
161 162
163 166
163 164
165 166
166 167
167 169
167 168
169 172
169 170
171 172
172 173
174 175
175 180
175 177
176 177
177 178
179 180
180 182
181 182
182 183
183 185
183 184
185 186
187 189
187 188
189 192
189 190
191 192
192 194
193 194
194 195
195 198
195 196
197 198
198 200
199 200
201 202
202 203
203 205
203 204
205 207
205 206
207 209
207 208
209 211
209 210
211 213
211 212
213 216
213 214
215 216
216 218
217 218
218 219
219 221
219 220
221 223
221 222
223 225
223 224
225 228
225 226
227 228
228 230
229 230
230 232
231 232
232 233
233 236
233 234
235 236
236 237
237 239
237 238
241 242
242 281
242 278
243 244
244 249
244 245
245 247
245 246
248 249
249 250
250 252
250 251
252 254
252 253
254 256
254 255
256 259
256 257
258 259
259 261
260 261
261 262
262 264
262 263
264 267
264 265
266 267
267 269
268 269
269 270
270 273
270 271
272 273
273 274
274 276
274 275
276 278
276 277
278 279
280 281
281 282
282 284
282 283
284 287
284 285
286 287
287 288
288 290
288 289
290 292
290 291
292 294
292 293
294 297
294 295
296 297
297 299
298 299
299 300
300 302
300 301
302 305
302 303
304 305
305 306
306 308
306 307
308 310
308 309
310 312
310 311
312 315
312 313
314 315
315 316
316 318
316 317
318 321
318 319
320 321
321 323
322 323
323 325
324 325
325 326
326 328
326 327
328 330
328 329
330 333
330 331
332 333
333 335
334 335
335 336
336 338
336 337
338 340
338 339
340 342
340 341
342 344
342 343
344 346
344 345
346 348
346 347
348 350
348 349
350 352
350 351
352 354
352 353
354 356
354 355
356 358
356 357
358 360
358 359
360 362
360 361
362 363
364 365
365 366
